S = 7;
start = [|0,26,0,0,0,0,0,0,0,40,0,0,0,0,6,0,0,0,0,0,0,0,0,0,0,0,0,0,17,0,0,0,0,0,0,0,0,0,0,0,0,0,0,0,0,0,0,0,0|
0,16,0,0,0,0,0,0,0,0,0,0,0,0,0,0,0,0,0,0,0,0,34,0,29,0,0,0,0,0,0,0,0,0,0,0,0,0,0,0,35,0,0,0,0,0,0,0,0|
0,0,0,0,0,0,0,0,0,0,0,0,0,0,0,0,0,0,0,0,0,0,0,0,0,0,0,2,0,0,0,0,0,0,0,40,0,0,0,0,0,0,0,0,0,0,0,0,0|
40,0,0,0,0,0,0,0,0,0,0,0,0,0,0,0,0,0,0,0,0,0,0,38,0,0,0,0,0,0,36,0,0,0,0,0,0,0,0,0,0,49,0,0,0,8,0,0,0|
0,0,0,0,0,0,0,0,12,0,0,0,0,0,0,0,0,0,0,0,0,43,0,42,0,0,0,0,0,0,0,0,0,0,0,0,0,16,0,0,0,28,0,0,0,0,0,0,0|
0,48,0,0,0,20,0,0,43,49,0,0,0,0,0,22,0,0,0,0,0,0,0,0,0,0,0,0,0,0,0,0,0,0,0,0,0,0,0,0,0,0,40,0,0,0,0,0,0|
0,38,0,0,0,0,0,44,0,0,0,0,0,0,0,0,0,23,0,0,0,0,0,0,0,0,0,0,0,0,0,0,0,0,0,0,0,13,0,0,0,0,0,0,0,0,0,0,0|
0,0,9,14,0,0,0,0,0,0,0,0,0,0,0,0,0,0,0,0,42,0,0,0,37,0,0,0,0,0,0,41,0,0,0,0,0,0,0,0,0,0,0,0,4,0,0,0,0|
0,0,0,0,0,0,0,0,45,0,0,0,0,0,0,0,0,9,0,0,0,0,0,0,15,0,0,0,0,0,0,11,0,25,0,0,0,0,0,0,0,47,0,0,0,0,0,40,0|
0,0,0,0,44,0,0,0,0,33,0,0,0,0,0,0,0,0,0,0,0,0,0,0,0,0,0,0,0,0,46,7,0,9,0,0,0,21,0,0,0,0,0,0,0,47,0,0,0|
0,0,0,0,4,0,0,0,0,13,0,0,0,0,0,0,0,0,0,0,0,49,0,0,0,0,0,0,0,0,0,24,0,0,0,0,0,0,0,0,41,0,0,0,3,0,0,0,0|
0,0,0,0,0,0,21,0,0,0,0,0,0,0,0,0,0,0,0,0,47,0,0,0,0,0,0,0,33,0,0,0,0,0,0,0,0,0,0,0,0,0,0,0,0,0,0,0,0|
0,0,0,0,0,0,0,0,0,0,0,0,0,0,0,0,0,0,0,0,0,0,0,0,23,0,0,0,0,0,0,20,0,0,0,0,0,0,0,0,0,0,0,0,0,21,0,0,0|
0,0,26,25,0,0,36,0,0,0,0,0,0,0,0,0,0,0,0,14,0,0,0,13,0,0,0,0,0,0,0,0,0,0,0,0,0,0,0,0,0,0,0,0,0,0,0,0,0|
0,0,0,0,0,0,0,0,0,0,0,0,0,0,0,0,0,0,0,0,0,13,0,0,40,0,0,0,0,0,0,0,0,0,0,0,0,43,0,0,0,0,45,0,0,0,0,0,0|
0,0,0,43,17,0,38,0,0,0,0,0,0,0,0,12,0,0,0,0,0,0,0,0,45,0,0,0,0,0,0,0,0,0,0,0,0,0,0,13,0,0,0,0,0,0,0,0,0|
0,0,0,0,42,0,0,0,0,0,0,0,0,39,11,0,0,0,0,0,0,0,0,0,0,0,0,0,0,0,0,0,0,0,0,0,0,0,32,0,0,0,0,0,0,20,0,0,0|
0,0,0,0,0,0,27,0,0,0,0,0,0,0,24,0,0,0,0,0,0,0,0,18,0,0,0,0,0,39,0,0,0,0,0,0,0,33,0,0,45,29,0,0,0,0,0,4,0|
0,0,28,0,0,0,0,0,0,0,0,0,0,0,0,0,0,0,0,0,0,2,42,0,16,0,0,44,0,0,0,0,0,0,0,0,0,0,0,0,0,0,0,0,0,0,11,29,0|
0,31,0,0,0,0,0,0,0,0,0,0,0,38,0,0,0,0,0,0,0,0,0,0,0,0,0,0,0,0,0,42,0,0,0,0,0,0,0,0,0,0,0,0,12,0,0,0,0|
0,0,0,0,0,0,16,0,0,0,0,0,0,0,36,0,0,5,0,0,0,0,33,0,0,0,0,0,0,0,0,31,0,0,0,0,0,0,0,0,0,0,0,0,13,0,0,2,0|
0,0,0,0,0,0,0,0,0,0,0,0,0,0,0,0,47,0,0,0,15,0,2,0,0,0,0,0,0,0,0,0,0,0,0,0,0,0,0,0,0,0,0,0,0,16,0,0,0|
0,0,0,0,0,0,0,0,0,0,0,0,0,0,0,0,46,26,35,0,0,0,0,16,0,0,0,0,0,0,0,0,0,39,0,29,0,34,0,0,0,0,0,0,0,0,0,0,0|
0,0,0,0,0,0,0,0,0,0,0,0,0,0,0,0,0,0,0,0,0,0,0,0,0,0,0,0,0,0,0,0,0,0,0,0,0,0,0,0,0,17,0,0,0,0,0,41,0|
0,0,0,22,0,0,0,0,0,0,0,39,0,16,0,0,0,40,0,0,0,0,0,0,34,0,0,0,36,0,0,0,0,0,0,0,0,0,0,0,0,0,0,0,0,0,0,0,0|
8,0,17,0,0,0,0,0,0,0,0,0,21,0,0,0,0,0,0,0,0,0,0,1,0,0,0,0,0,0,0,0,0,44,0,0,0,0,11,0,15,0,0,0,0,0,0,0,0|
0,0,0,26,0,10,0,0,0,0,0,0,0,0,0,0,0,42,0,0,0,0,0,0,0,0,0,0,0,0,49,0,0,0,0,0,0,0,0,0,0,0,0,33,0,0,0,0,0|
0,0,0,0,0,0,0,0,0,0,0,0,0,0,0,0,0,0,0,0,0,0,0,0,0,0,0,0,0,0,0,0,0,0,0,0,0,0,0,0,0,0,0,0,6,0,0,0,0|
0,0,0,0,11,0,0,0,0,0,44,0,0,0,0,0,0,0,1,0,0,0,27,0,0,0,0,0,0,0,0,0,0,0,34,0,0,0,0,0,5,0,49,0,0,0,0,0,0|
0,0,0,0,0,0,0,0,0,0,0,0,0,0,0,0,0,0,0,44,0,26,6,0,1,0,0,0,0,16,27,0,0,0,0,0,0,0,0,0,0,32,0,0,0,0,0,0,0|
0,0,7,0,0,0,0,0,0,0,0,0,0,0,0,23,0,0,29,0,0,0,0,0,0,0,0,0,0,0,0,0,0,0,0,0,0,0,0,15,0,0,0,0,0,0,0,0,0|
0,0,37,0,0,0,0,0,0,0,0,0,0,0,0,0,0,0,0,0,0,0,12,0,0,0,0,0,0,0,23,0,40,7,22,0,43,0,0,0,0,0,0,0,0,0,0,0,0|
0,0,0,0,0,0,0,19,0,43,0,0,0,0,0,0,0,0,0,0,0,0,0,0,0,0,0,31,0,0,0,0,0,0,0,0,34,0,0,4,0,0,0,0,0,0,0,0,0|
0,0,0,0,0,0,0,0,0,0,0,0,14,0,0,0,0,0,0,0,0,0,0,0,25,0,0,0,10,0,0,4,0,0,0,0,0,0,0,1,0,0,0,0,0,0,0,0,45|
22,0,0,0,0,0,0,0,34,0,0,0,0,0,0,0,0,43,38,0,0,17,0,0,0,0,0,0,26,0,0,30,0,0,0,0,0,0,0,0,0,0,0,0,0,23,0,0,0|
0,0,0,0,0,0,0,0,0,5,0,0,0,0,44,0,0,0,0,0,0,0,0,0,0,0,0,0,0,0,0,0,0,12,0,0,0,0,0,0,0,0,0,7,0,0,0,0,0|
0,43,0,0,0,8,0,0,0,0,0,0,0,0,0,0,0,0,0,0,0,1,13,10,0,32,0,0,18,0,0,0,0,0,0,0,0,0,0,0,20,0,0,0,0,0,0,11,0|
0,0,0,0,0,0,0,0,0,0,0,0,0,0,0,0,0,0,0,0,37,0,0,0,0,0,0,0,0,0,0,0,35,0,0,0,0,0,0,0,36,0,0,0,0,0,0,0,0|
0,0,0,5,45,0,0,0,0,0,0,0,0,0,0,0,0,0,0,0,0,0,0,0,22,0,0,34,0,0,0,0,0,0,0,0,0,0,0,0,0,0,0,0,0,49,0,27,0|
12,0,0,0,0,0,0,0,0,0,0,0,0,0,0,0,0,0,0,36,40,0,4,0,0,44,0,0,0,0,0,0,22,0,11,0,0,0,0,0,0,0,0,0,0,0,0,0,0|
0,0,0,0,0,0,0,0,0,0,7,0,0,0,10,0,0,0,0,0,0,0,0,0,48,0,0,0,0,0,37,0,0,0,0,0,0,0,0,0,0,0,0,0,0,0,0,0,0|
0,22,30,0,0,0,0,0,0,0,0,0,0,0,0,0,0,0,0,0,0,0,0,0,11,0,0,0,0,0,0,0,0,0,15,47,0,0,0,0,0,0,5,0,0,0,0,0,42|
0,0,0,0,0,0,0,17,0,0,0,0,0,0,19,33,0,34,0,0,0,0,0,0,0,0,0,0,0,0,0,0,0,0,0,0,0,0,0,0,0,0,0,0,0,0,0,0,39|
0,0,0,7,0,16,0,0,29,0,0,0,0,0,0,32,0,0,0,0,0,12,0,0,0,0,0,0,0,0,0,0,10,0,0,0,0,0,0,0,0,0,0,0,0,0,13,0,0|
0,0,0,0,0,0,0,0,0,0,0,0,0,0,0,45,0,0,0,0,0,0,0,0,0,0,0,0,0,0,0,0,0,0,14,0,0,0,0,0,0,0,0,0,0,0,0,0,0|
0,3,0,0,0,0,0,0,0,0,0,0,0,0,0,0,15,0,0,0,0,0,0,0,0,0,0,0,0,49,0,0,16,0,0,0,0,17,0,0,0,0,0,0,0,0,0,0,11|
0,0,0,0,0,0,47,24,0,0,0,0,0,0,0,0,30,0,0,9,0,0,0,0,0,0,0,0,0,0,0,0,0,0,23,0,1,3,0,0,0,0,0,0,0,0,6,0,0|
0,0,0,0,0,0,0,0,0,0,0,0,0,0,40,0,38,0,0,0,0,0,0,0,0,0,0,0,0,0,0,0,25,0,0,0,0,0,0,0,0,0,0,0,0,0,5,0,0|
0,0,0,0,0,0,0,0,0,23,0,0,0,0,0,0,0,0,0,0,0,0,0,0,0,25,47,0,0,0,0,0,0,0,0,30,14,0,0,0,0,40,0,0,0,0,0,0,0|];